100 8
769 606
464 298
397 428
972 222
821 289
771 646
744 663
898 356
259 529
679 602
582 322
373 402
627 648
586 167
547 790
353 567
349 659
864 260
823 834
172 239
507 339
911 969
500 717
531 410
341 240
508 261
899 291
131 260
812 547
667 436
955 272
30 405
640 176
399 410
775 839
68 515
73 434
648 640
546 317
811 93
154 265
729 711
722 239
117 155
634 170
238 417
590 698
737 647
98 143
867 914
838 817
675 720
218 585
645 709
970 317
606 443
413 187
177 163
592 155
965 355
408 415
313 651
459 397
898 248
736 949
451 244
572 712
225 561
603 141
190 141
408 230
661 349
267 652
875 332
821 80
474 258
554 477
843 786
964 280
545 631
204 551
292 153
647 374
544 460
581 606
602 313
149 210
628 674
684 425
782 580
612 303
24 529
404 118
665 701
829 806
15 428
413 353
620 645
870 126
450 277
